0,26,9,71,66,0
0,83,8,46,45,86,38,0
0,31,88,7,82,48,47,36,49,64,0
0,62,19,11,63,90,32,20,10,70,0
0,2,57,87,42,15,43,14,93,96,0
0,30,51,81,33,79,78,34,35,65,0
0,72,75,22,41,23,67,25,55,54,58,0
0,59,99,94,6,18,60,84,17,5,89,0
0,69,76,12,80,24,29,68,77,3,50,1,0
0,52,27,28,53,40,21,73,74,56,39,4,0
0,95,92,98,85,61,16,44,91,100,37,97,13,0
